\ Model vert
\ LP format - for model browsing. Use MPS format to capture full model detail.
Minimize
  60394.15895008597 S_coef + 3537.618457422204 Constant + [ 515524 S_coef ^2
   ] / 2 
Subject To
Bounds
 -1000 <= S_coef <= 0
 Constant = 1
End
